p cnf 10 28
c ind 1 2 3 0
c ind 4 5 6 7 8 0
3 2 -4 0
3 1 -4 0
2 1 -4 0
-3 -2 4 0
-3 -1 4 0
-2 -1 4 0
3 -2 1 -5 0
-3 5 0
-1 5 0
2 5 0
3 2 -1 -6 0
-3 6 0
1 6 0
-2 6 0
-3 2 1 -7 0
3 7 0
-1 7 0
-2 7 0
-3 2 -1 -8 0
3 8 0
1 8 0
-2 8 0
8 -9 0
4 -9 0
5 -9 0
6 -9 0
7 -9 0
-8 -7 -6 -5 -4 9 0